
;this file is automatically generated: Mon Oct 04 22:33:08 IST 2021

;declarations generated

(declare-fun oclExcludes ( Int Int) Bool)
(declare-fun class16_Class16IntAttr3 ( Int) Int)
(declare-fun Cardinality ( Int) Int)
(declare-fun obj_0847d2d6_7d18_4bc8_9083_8d062b02db8c ( Int) Int)
(declare-fun type_dfb7d253_c143_4273_8ca0_b94a15f3c021_Class5 ( Int) Bool)
(declare-fun type_dfb7d253_c143_4273_8ca0_b94a15f3c021_Class6 ( Int) Bool)
(declare-fun type_dfb7d253_c143_4273_8ca0_b94a15f3c021_Class7 ( Int) Bool)
(declare-fun type_dfb7d253_c143_4273_8ca0_b94a15f3c021_Class8 ( Int) Bool)
(declare-fun type_dfb7d253_c143_4273_8ca0_b94a15f3c021_Class9 ( Int) Bool)
(declare-fun type_dfb7d253_c143_4273_8ca0_b94a15f3c021_Class0 ( Int) Bool)
(declare-fun type_dfb7d253_c143_4273_8ca0_b94a15f3c021_Class1 ( Int) Bool)
(declare-fun type_dfb7d253_c143_4273_8ca0_b94a15f3c021_Class2 ( Int) Bool)
(declare-fun type_dfb7d253_c143_4273_8ca0_b94a15f3c021_Class3 ( Int) Bool)
(declare-fun type_dfb7d253_c143_4273_8ca0_b94a15f3c021_Class4 ( Int) Bool)
(declare-fun oclSelect ( Int Bool) Int)
(declare-fun type_dfb7d253_c143_4273_8ca0_b94a15f3c021_Class12 ( Int) Bool)
(declare-fun type_dfb7d253_c143_4273_8ca0_b94a15f3c021_Class13 ( Int) Bool)
(declare-fun type_dfb7d253_c143_4273_8ca0_b94a15f3c021_Class10 ( Int) Bool)
(declare-fun type_dfb7d253_c143_4273_8ca0_b94a15f3c021_Class11 ( Int) Bool)
(declare-fun type_dfb7d253_c143_4273_8ca0_b94a15f3c021_Class16 ( Int) Bool)
(declare-fun type_dfb7d253_c143_4273_8ca0_b94a15f3c021_Class17 ( Int) Bool)
(declare-fun type_dfb7d253_c143_4273_8ca0_b94a15f3c021_Class14 ( Int) Bool)
(declare-fun type_dfb7d253_c143_4273_8ca0_b94a15f3c021_Class15 ( Int) Bool)
(declare-fun type_dfb7d253_c143_4273_8ca0_b94a15f3c021_Class18 ( Int) Bool)
(declare-fun type_dfb7d253_c143_4273_8ca0_b94a15f3c021_Class19 ( Int) Bool)
(declare-fun Enum0 ( Int) Int)
(declare-fun Enum1 ( Int) Int)
(declare-fun Enum2 ( Int) Int)
(declare-fun type_dfb7d253_c143_4273_8ca0_b94a15f3c021_Class30 ( Int) Bool)
(declare-fun type_dfb7d253_c143_4273_8ca0_b94a15f3c021_Class31 ( Int) Bool)
(declare-fun type_dfb7d253_c143_4273_8ca0_b94a15f3c021_Class34 ( Int) Bool)
(declare-fun type_dfb7d253_c143_4273_8ca0_b94a15f3c021_Class35 ( Int) Bool)
(declare-fun container_ ( Int) Int)
(declare-fun type_dfb7d253_c143_4273_8ca0_b94a15f3c021_Class32 ( Int) Bool)
(declare-fun type_dfb7d253_c143_4273_8ca0_b94a15f3c021_Class33 ( Int) Bool)
(declare-fun type_dfb7d253_c143_4273_8ca0_b94a15f3c021_Class38 ( Int) Bool)
(declare-fun type_dfb7d253_c143_4273_8ca0_b94a15f3c021_Class39 ( Int) Bool)
(declare-fun type_dfb7d253_c143_4273_8ca0_b94a15f3c021_Class36 ( Int) Bool)
(declare-fun type_dfb7d253_c143_4273_8ca0_b94a15f3c021_Class37 ( Int) Bool)
(declare-fun type_dfb7d253_c143_4273_8ca0_b94a15f3c021_Class20 ( Int) Bool)
(declare-fun type_dfb7d253_c143_4273_8ca0_b94a15f3c021_Class23 ( Int) Bool)
(declare-fun type_dfb7d253_c143_4273_8ca0_b94a15f3c021_Class24 ( Int) Bool)
(declare-fun type_dfb7d253_c143_4273_8ca0_b94a15f3c021_Class21 ( Int) Bool)
(declare-fun type_dfb7d253_c143_4273_8ca0_b94a15f3c021_Class22 ( Int) Bool)
(declare-fun type_dfb7d253_c143_4273_8ca0_b94a15f3c021_Class27 ( Int) Bool)
(declare-fun type_dfb7d253_c143_4273_8ca0_b94a15f3c021_Class28 ( Int) Bool)
(declare-fun type_dfb7d253_c143_4273_8ca0_b94a15f3c021_Class25 ( Int) Bool)
(declare-fun type_dfb7d253_c143_4273_8ca0_b94a15f3c021_Class26 ( Int) Bool)
(declare-fun type_dfb7d253_c143_4273_8ca0_b94a15f3c021_Class29 ( Int) Bool)
(declare-fun type_dfb7d253_c143_4273_8ca0_b94a15f3c021_Class52 ( Int) Bool)
(declare-fun type_dfb7d253_c143_4273_8ca0_b94a15f3c021_Class53 ( Int) Bool)
(declare-fun type_dfb7d253_c143_4273_8ca0_b94a15f3c021_Class50 ( Int) Bool)
(declare-fun type_dfb7d253_c143_4273_8ca0_b94a15f3c021_Class51 ( Int) Bool)
(declare-fun type_dfb7d253_c143_4273_8ca0_b94a15f3c021_Class54 ( Int) Bool)
(declare-fun type_dfb7d253_c143_4273_8ca0_b94a15f3c021_Class55 ( Int) Bool)
(declare-fun oclIncludes ( Int Int) Bool)
(declare-fun type_dfb7d253_c143_4273_8ca0_b94a15f3c021_Class41 ( Int) Bool)
(declare-fun type_dfb7d253_c143_4273_8ca0_b94a15f3c021_Class42 ( Int) Bool)
(declare-fun type_dfb7d253_c143_4273_8ca0_b94a15f3c021_Class40 ( Int) Bool)
(declare-fun type_dfb7d253_c143_4273_8ca0_b94a15f3c021_Class45 ( Int) Bool)
(declare-fun type_dfb7d253_c143_4273_8ca0_b94a15f3c021_Class46 ( Int) Bool)
(declare-fun type_dfb7d253_c143_4273_8ca0_b94a15f3c021_Class43 ( Int) Bool)
(declare-fun type_dfb7d253_c143_4273_8ca0_b94a15f3c021_Class44 ( Int) Bool)
(declare-fun type_dfb7d253_c143_4273_8ca0_b94a15f3c021_Class49 ( Int) Bool)
(declare-fun type_dfb7d253_c143_4273_8ca0_b94a15f3c021_Class47 ( Int) Bool)
(declare-fun type_dfb7d253_c143_4273_8ca0_b94a15f3c021_Class48 ( Int) Bool)
(declare-fun ObjAt ( Int Int) Int)

;formula(s) generated
(assert (! (forall ((v Int)) (=> (and (and (and (and (and ( type_dfb7d253_c143_4273_8ca0_b94a15f3c021_Class16 v )  ( type_dfb7d253_c143_4273_8ca0_b94a15f3c021_Class45 v ) ) ( type_dfb7d253_c143_4273_8ca0_b94a15f3c021_Class12 v ) ) ( type_dfb7d253_c143_4273_8ca0_b94a15f3c021_Class33 v ) ) ( type_dfb7d253_c143_4273_8ca0_b94a15f3c021_Class22 v ) ) ( type_dfb7d253_c143_4273_8ca0_b94a15f3c021_Class39 v ) ) (<= ( class16_Class16IntAttr3 ( obj_0847d2d6_7d18_4bc8_9083_8d062b02db8c v )  )  16))):named l0))
(assert (! (exists ((o Int)) ( type_dfb7d253_c143_4273_8ca0_b94a15f3c021_Class0 ( obj_0847d2d6_7d18_4bc8_9083_8d062b02db8c o )  ) ):named c0))
(assert (! (exists ((o Int)) (and (and (and (and (and ( type_dfb7d253_c143_4273_8ca0_b94a15f3c021_Class1 ( obj_0847d2d6_7d18_4bc8_9083_8d062b02db8c o )  )  ( type_dfb7d253_c143_4273_8ca0_b94a15f3c021_Class45 ( obj_0847d2d6_7d18_4bc8_9083_8d062b02db8c o )  ) ) ( type_dfb7d253_c143_4273_8ca0_b94a15f3c021_Class12 ( obj_0847d2d6_7d18_4bc8_9083_8d062b02db8c o )  ) ) ( type_dfb7d253_c143_4273_8ca0_b94a15f3c021_Class33 ( obj_0847d2d6_7d18_4bc8_9083_8d062b02db8c o )  ) ) ( type_dfb7d253_c143_4273_8ca0_b94a15f3c021_Class22 ( obj_0847d2d6_7d18_4bc8_9083_8d062b02db8c o )  ) ) ( type_dfb7d253_c143_4273_8ca0_b94a15f3c021_Class39 ( obj_0847d2d6_7d18_4bc8_9083_8d062b02db8c o )  ) )):named c1))
(assert (! (exists ((o Int)) (and (and (and (and (and (and (and (and (and ( type_dfb7d253_c143_4273_8ca0_b94a15f3c021_Class10 ( obj_0847d2d6_7d18_4bc8_9083_8d062b02db8c o )  )  ( type_dfb7d253_c143_4273_8ca0_b94a15f3c021_Class45 ( obj_0847d2d6_7d18_4bc8_9083_8d062b02db8c o )  ) ) ( type_dfb7d253_c143_4273_8ca0_b94a15f3c021_Class12 ( obj_0847d2d6_7d18_4bc8_9083_8d062b02db8c o )  ) ) ( type_dfb7d253_c143_4273_8ca0_b94a15f3c021_Class55 ( obj_0847d2d6_7d18_4bc8_9083_8d062b02db8c o )  ) ) ( type_dfb7d253_c143_4273_8ca0_b94a15f3c021_Class33 ( obj_0847d2d6_7d18_4bc8_9083_8d062b02db8c o )  ) ) ( type_dfb7d253_c143_4273_8ca0_b94a15f3c021_Class22 ( obj_0847d2d6_7d18_4bc8_9083_8d062b02db8c o )  ) ) ( type_dfb7d253_c143_4273_8ca0_b94a15f3c021_Class29 ( obj_0847d2d6_7d18_4bc8_9083_8d062b02db8c o )  ) ) ( type_dfb7d253_c143_4273_8ca0_b94a15f3c021_Class39 ( obj_0847d2d6_7d18_4bc8_9083_8d062b02db8c o )  ) ) ( type_dfb7d253_c143_4273_8ca0_b94a15f3c021_Class50 ( obj_0847d2d6_7d18_4bc8_9083_8d062b02db8c o )  ) ) ( type_dfb7d253_c143_4273_8ca0_b94a15f3c021_Class41 ( obj_0847d2d6_7d18_4bc8_9083_8d062b02db8c o )  ) )):named c2))
(assert (! (exists ((o Int)) ( type_dfb7d253_c143_4273_8ca0_b94a15f3c021_Class11 ( obj_0847d2d6_7d18_4bc8_9083_8d062b02db8c o )  ) ):named c3))
(assert (! (exists ((o Int)) (and (and (and ( type_dfb7d253_c143_4273_8ca0_b94a15f3c021_Class12 ( obj_0847d2d6_7d18_4bc8_9083_8d062b02db8c o )  )  ( type_dfb7d253_c143_4273_8ca0_b94a15f3c021_Class33 ( obj_0847d2d6_7d18_4bc8_9083_8d062b02db8c o )  ) ) ( type_dfb7d253_c143_4273_8ca0_b94a15f3c021_Class22 ( obj_0847d2d6_7d18_4bc8_9083_8d062b02db8c o )  ) ) ( type_dfb7d253_c143_4273_8ca0_b94a15f3c021_Class39 ( obj_0847d2d6_7d18_4bc8_9083_8d062b02db8c o )  ) )):named c4))
(assert (! (exists ((o Int)) (and (and (and (and (and (and (and (and (and ( type_dfb7d253_c143_4273_8ca0_b94a15f3c021_Class13 ( obj_0847d2d6_7d18_4bc8_9083_8d062b02db8c o )  )  ( type_dfb7d253_c143_4273_8ca0_b94a15f3c021_Class45 ( obj_0847d2d6_7d18_4bc8_9083_8d062b02db8c o )  ) ) ( type_dfb7d253_c143_4273_8ca0_b94a15f3c021_Class12 ( obj_0847d2d6_7d18_4bc8_9083_8d062b02db8c o )  ) ) ( type_dfb7d253_c143_4273_8ca0_b94a15f3c021_Class55 ( obj_0847d2d6_7d18_4bc8_9083_8d062b02db8c o )  ) ) ( type_dfb7d253_c143_4273_8ca0_b94a15f3c021_Class33 ( obj_0847d2d6_7d18_4bc8_9083_8d062b02db8c o )  ) ) ( type_dfb7d253_c143_4273_8ca0_b94a15f3c021_Class22 ( obj_0847d2d6_7d18_4bc8_9083_8d062b02db8c o )  ) ) ( type_dfb7d253_c143_4273_8ca0_b94a15f3c021_Class29 ( obj_0847d2d6_7d18_4bc8_9083_8d062b02db8c o )  ) ) ( type_dfb7d253_c143_4273_8ca0_b94a15f3c021_Class39 ( obj_0847d2d6_7d18_4bc8_9083_8d062b02db8c o )  ) ) ( type_dfb7d253_c143_4273_8ca0_b94a15f3c021_Class50 ( obj_0847d2d6_7d18_4bc8_9083_8d062b02db8c o )  ) ) ( type_dfb7d253_c143_4273_8ca0_b94a15f3c021_Class41 ( obj_0847d2d6_7d18_4bc8_9083_8d062b02db8c o )  ) )):named c5))
(assert (! (exists ((o Int)) (and (and (and (and (and (and (and (and (and ( type_dfb7d253_c143_4273_8ca0_b94a15f3c021_Class14 ( obj_0847d2d6_7d18_4bc8_9083_8d062b02db8c o )  )  ( type_dfb7d253_c143_4273_8ca0_b94a15f3c021_Class45 ( obj_0847d2d6_7d18_4bc8_9083_8d062b02db8c o )  ) ) ( type_dfb7d253_c143_4273_8ca0_b94a15f3c021_Class12 ( obj_0847d2d6_7d18_4bc8_9083_8d062b02db8c o )  ) ) ( type_dfb7d253_c143_4273_8ca0_b94a15f3c021_Class55 ( obj_0847d2d6_7d18_4bc8_9083_8d062b02db8c o )  ) ) ( type_dfb7d253_c143_4273_8ca0_b94a15f3c021_Class33 ( obj_0847d2d6_7d18_4bc8_9083_8d062b02db8c o )  ) ) ( type_dfb7d253_c143_4273_8ca0_b94a15f3c021_Class22 ( obj_0847d2d6_7d18_4bc8_9083_8d062b02db8c o )  ) ) ( type_dfb7d253_c143_4273_8ca0_b94a15f3c021_Class29 ( obj_0847d2d6_7d18_4bc8_9083_8d062b02db8c o )  ) ) ( type_dfb7d253_c143_4273_8ca0_b94a15f3c021_Class39 ( obj_0847d2d6_7d18_4bc8_9083_8d062b02db8c o )  ) ) ( type_dfb7d253_c143_4273_8ca0_b94a15f3c021_Class50 ( obj_0847d2d6_7d18_4bc8_9083_8d062b02db8c o )  ) ) ( type_dfb7d253_c143_4273_8ca0_b94a15f3c021_Class41 ( obj_0847d2d6_7d18_4bc8_9083_8d062b02db8c o )  ) )):named c6))
(assert (! (exists ((o Int)) ( type_dfb7d253_c143_4273_8ca0_b94a15f3c021_Class15 ( obj_0847d2d6_7d18_4bc8_9083_8d062b02db8c o )  ) ):named c7))
(assert (! (exists ((o Int)) (and (and (and (and (and ( type_dfb7d253_c143_4273_8ca0_b94a15f3c021_Class16 ( obj_0847d2d6_7d18_4bc8_9083_8d062b02db8c o )  )  ( type_dfb7d253_c143_4273_8ca0_b94a15f3c021_Class45 ( obj_0847d2d6_7d18_4bc8_9083_8d062b02db8c o )  ) ) ( type_dfb7d253_c143_4273_8ca0_b94a15f3c021_Class12 ( obj_0847d2d6_7d18_4bc8_9083_8d062b02db8c o )  ) ) ( type_dfb7d253_c143_4273_8ca0_b94a15f3c021_Class33 ( obj_0847d2d6_7d18_4bc8_9083_8d062b02db8c o )  ) ) ( type_dfb7d253_c143_4273_8ca0_b94a15f3c021_Class22 ( obj_0847d2d6_7d18_4bc8_9083_8d062b02db8c o )  ) ) ( type_dfb7d253_c143_4273_8ca0_b94a15f3c021_Class39 ( obj_0847d2d6_7d18_4bc8_9083_8d062b02db8c o )  ) )):named c8))
(assert (! (exists ((o Int)) ( type_dfb7d253_c143_4273_8ca0_b94a15f3c021_Class17 ( obj_0847d2d6_7d18_4bc8_9083_8d062b02db8c o )  ) ):named c9))
(assert (! (exists ((o Int)) (and (and (and ( type_dfb7d253_c143_4273_8ca0_b94a15f3c021_Class18 ( obj_0847d2d6_7d18_4bc8_9083_8d062b02db8c o )  )  ( type_dfb7d253_c143_4273_8ca0_b94a15f3c021_Class25 ( obj_0847d2d6_7d18_4bc8_9083_8d062b02db8c o )  ) ) ( type_dfb7d253_c143_4273_8ca0_b94a15f3c021_Class24 ( obj_0847d2d6_7d18_4bc8_9083_8d062b02db8c o )  ) ) ( type_dfb7d253_c143_4273_8ca0_b94a15f3c021_Class39 ( obj_0847d2d6_7d18_4bc8_9083_8d062b02db8c o )  ) )):named c10))
(assert (! (exists ((o Int)) (and (and (and (and (and (and (and (and (and ( type_dfb7d253_c143_4273_8ca0_b94a15f3c021_Class19 ( obj_0847d2d6_7d18_4bc8_9083_8d062b02db8c o )  )  ( type_dfb7d253_c143_4273_8ca0_b94a15f3c021_Class45 ( obj_0847d2d6_7d18_4bc8_9083_8d062b02db8c o )  ) ) ( type_dfb7d253_c143_4273_8ca0_b94a15f3c021_Class12 ( obj_0847d2d6_7d18_4bc8_9083_8d062b02db8c o )  ) ) ( type_dfb7d253_c143_4273_8ca0_b94a15f3c021_Class55 ( obj_0847d2d6_7d18_4bc8_9083_8d062b02db8c o )  ) ) ( type_dfb7d253_c143_4273_8ca0_b94a15f3c021_Class33 ( obj_0847d2d6_7d18_4bc8_9083_8d062b02db8c o )  ) ) ( type_dfb7d253_c143_4273_8ca0_b94a15f3c021_Class22 ( obj_0847d2d6_7d18_4bc8_9083_8d062b02db8c o )  ) ) ( type_dfb7d253_c143_4273_8ca0_b94a15f3c021_Class29 ( obj_0847d2d6_7d18_4bc8_9083_8d062b02db8c o )  ) ) ( type_dfb7d253_c143_4273_8ca0_b94a15f3c021_Class39 ( obj_0847d2d6_7d18_4bc8_9083_8d062b02db8c o )  ) ) ( type_dfb7d253_c143_4273_8ca0_b94a15f3c021_Class50 ( obj_0847d2d6_7d18_4bc8_9083_8d062b02db8c o )  ) ) ( type_dfb7d253_c143_4273_8ca0_b94a15f3c021_Class41 ( obj_0847d2d6_7d18_4bc8_9083_8d062b02db8c o )  ) )):named c11))
(assert (! (exists ((o Int)) ( type_dfb7d253_c143_4273_8ca0_b94a15f3c021_Class2 ( obj_0847d2d6_7d18_4bc8_9083_8d062b02db8c o )  ) ):named c12))
(assert (! (exists ((o Int)) ( type_dfb7d253_c143_4273_8ca0_b94a15f3c021_Class20 ( obj_0847d2d6_7d18_4bc8_9083_8d062b02db8c o )  ) ):named c13))
(assert (! (exists ((o Int)) (and (and (and (and (and (and (and (and (and ( type_dfb7d253_c143_4273_8ca0_b94a15f3c021_Class21 ( obj_0847d2d6_7d18_4bc8_9083_8d062b02db8c o )  )  ( type_dfb7d253_c143_4273_8ca0_b94a15f3c021_Class45 ( obj_0847d2d6_7d18_4bc8_9083_8d062b02db8c o )  ) ) ( type_dfb7d253_c143_4273_8ca0_b94a15f3c021_Class12 ( obj_0847d2d6_7d18_4bc8_9083_8d062b02db8c o )  ) ) ( type_dfb7d253_c143_4273_8ca0_b94a15f3c021_Class33 ( obj_0847d2d6_7d18_4bc8_9083_8d062b02db8c o )  ) ) ( type_dfb7d253_c143_4273_8ca0_b94a15f3c021_Class22 ( obj_0847d2d6_7d18_4bc8_9083_8d062b02db8c o )  ) ) ( type_dfb7d253_c143_4273_8ca0_b94a15f3c021_Class16 ( obj_0847d2d6_7d18_4bc8_9083_8d062b02db8c o )  ) ) ( type_dfb7d253_c143_4273_8ca0_b94a15f3c021_Class29 ( obj_0847d2d6_7d18_4bc8_9083_8d062b02db8c o )  ) ) ( type_dfb7d253_c143_4273_8ca0_b94a15f3c021_Class39 ( obj_0847d2d6_7d18_4bc8_9083_8d062b02db8c o )  ) ) ( type_dfb7d253_c143_4273_8ca0_b94a15f3c021_Class41 ( obj_0847d2d6_7d18_4bc8_9083_8d062b02db8c o )  ) ) ( type_dfb7d253_c143_4273_8ca0_b94a15f3c021_Class51 ( obj_0847d2d6_7d18_4bc8_9083_8d062b02db8c o )  ) )):named c14))
(assert (! (exists ((o Int)) (and ( type_dfb7d253_c143_4273_8ca0_b94a15f3c021_Class22 ( obj_0847d2d6_7d18_4bc8_9083_8d062b02db8c o )  )  ( type_dfb7d253_c143_4273_8ca0_b94a15f3c021_Class39 ( obj_0847d2d6_7d18_4bc8_9083_8d062b02db8c o )  ) )):named c15))
(assert (! (exists ((o Int)) (and (and (and (and ( type_dfb7d253_c143_4273_8ca0_b94a15f3c021_Class23 ( obj_0847d2d6_7d18_4bc8_9083_8d062b02db8c o )  )  ( type_dfb7d253_c143_4273_8ca0_b94a15f3c021_Class25 ( obj_0847d2d6_7d18_4bc8_9083_8d062b02db8c o )  ) ) ( type_dfb7d253_c143_4273_8ca0_b94a15f3c021_Class24 ( obj_0847d2d6_7d18_4bc8_9083_8d062b02db8c o )  ) ) ( type_dfb7d253_c143_4273_8ca0_b94a15f3c021_Class39 ( obj_0847d2d6_7d18_4bc8_9083_8d062b02db8c o )  ) ) ( type_dfb7d253_c143_4273_8ca0_b94a15f3c021_Class5 ( obj_0847d2d6_7d18_4bc8_9083_8d062b02db8c o )  ) )):named c16))
(assert (! (exists ((o Int)) (and (and ( type_dfb7d253_c143_4273_8ca0_b94a15f3c021_Class24 ( obj_0847d2d6_7d18_4bc8_9083_8d062b02db8c o )  )  ( type_dfb7d253_c143_4273_8ca0_b94a15f3c021_Class25 ( obj_0847d2d6_7d18_4bc8_9083_8d062b02db8c o )  ) ) ( type_dfb7d253_c143_4273_8ca0_b94a15f3c021_Class39 ( obj_0847d2d6_7d18_4bc8_9083_8d062b02db8c o )  ) )):named c17))
(assert (! (exists ((o Int)) (and ( type_dfb7d253_c143_4273_8ca0_b94a15f3c021_Class25 ( obj_0847d2d6_7d18_4bc8_9083_8d062b02db8c o )  )  ( type_dfb7d253_c143_4273_8ca0_b94a15f3c021_Class39 ( obj_0847d2d6_7d18_4bc8_9083_8d062b02db8c o )  ) )):named c18))
(assert (! (exists ((o Int)) ( type_dfb7d253_c143_4273_8ca0_b94a15f3c021_Class26 ( obj_0847d2d6_7d18_4bc8_9083_8d062b02db8c o )  ) ):named c19))
(assert (! (exists ((o Int)) ( type_dfb7d253_c143_4273_8ca0_b94a15f3c021_Class27 ( obj_0847d2d6_7d18_4bc8_9083_8d062b02db8c o )  ) ):named c20))
(assert (! (exists ((o Int)) (and (and (and (and (and (and (and ( type_dfb7d253_c143_4273_8ca0_b94a15f3c021_Class28 ( obj_0847d2d6_7d18_4bc8_9083_8d062b02db8c o )  )  ( type_dfb7d253_c143_4273_8ca0_b94a15f3c021_Class45 ( obj_0847d2d6_7d18_4bc8_9083_8d062b02db8c o )  ) ) ( type_dfb7d253_c143_4273_8ca0_b94a15f3c021_Class12 ( obj_0847d2d6_7d18_4bc8_9083_8d062b02db8c o )  ) ) ( type_dfb7d253_c143_4273_8ca0_b94a15f3c021_Class33 ( obj_0847d2d6_7d18_4bc8_9083_8d062b02db8c o )  ) ) ( type_dfb7d253_c143_4273_8ca0_b94a15f3c021_Class22 ( obj_0847d2d6_7d18_4bc8_9083_8d062b02db8c o )  ) ) ( type_dfb7d253_c143_4273_8ca0_b94a15f3c021_Class29 ( obj_0847d2d6_7d18_4bc8_9083_8d062b02db8c o )  ) ) ( type_dfb7d253_c143_4273_8ca0_b94a15f3c021_Class39 ( obj_0847d2d6_7d18_4bc8_9083_8d062b02db8c o )  ) ) ( type_dfb7d253_c143_4273_8ca0_b94a15f3c021_Class41 ( obj_0847d2d6_7d18_4bc8_9083_8d062b02db8c o )  ) )):named c21))
(assert (! (exists ((o Int)) (and (and (and (and (and (and ( type_dfb7d253_c143_4273_8ca0_b94a15f3c021_Class29 ( obj_0847d2d6_7d18_4bc8_9083_8d062b02db8c o )  )  ( type_dfb7d253_c143_4273_8ca0_b94a15f3c021_Class45 ( obj_0847d2d6_7d18_4bc8_9083_8d062b02db8c o )  ) ) ( type_dfb7d253_c143_4273_8ca0_b94a15f3c021_Class12 ( obj_0847d2d6_7d18_4bc8_9083_8d062b02db8c o )  ) ) ( type_dfb7d253_c143_4273_8ca0_b94a15f3c021_Class33 ( obj_0847d2d6_7d18_4bc8_9083_8d062b02db8c o )  ) ) ( type_dfb7d253_c143_4273_8ca0_b94a15f3c021_Class22 ( obj_0847d2d6_7d18_4bc8_9083_8d062b02db8c o )  ) ) ( type_dfb7d253_c143_4273_8ca0_b94a15f3c021_Class39 ( obj_0847d2d6_7d18_4bc8_9083_8d062b02db8c o )  ) ) ( type_dfb7d253_c143_4273_8ca0_b94a15f3c021_Class41 ( obj_0847d2d6_7d18_4bc8_9083_8d062b02db8c o )  ) )):named c22))
(assert (! (exists ((o Int)) (and (and (and ( type_dfb7d253_c143_4273_8ca0_b94a15f3c021_Class3 ( obj_0847d2d6_7d18_4bc8_9083_8d062b02db8c o )  )  ( type_dfb7d253_c143_4273_8ca0_b94a15f3c021_Class25 ( obj_0847d2d6_7d18_4bc8_9083_8d062b02db8c o )  ) ) ( type_dfb7d253_c143_4273_8ca0_b94a15f3c021_Class24 ( obj_0847d2d6_7d18_4bc8_9083_8d062b02db8c o )  ) ) ( type_dfb7d253_c143_4273_8ca0_b94a15f3c021_Class39 ( obj_0847d2d6_7d18_4bc8_9083_8d062b02db8c o )  ) )):named c23))
(assert (! (exists ((o Int)) (and ( type_dfb7d253_c143_4273_8ca0_b94a15f3c021_Class30 ( obj_0847d2d6_7d18_4bc8_9083_8d062b02db8c o )  )  ( type_dfb7d253_c143_4273_8ca0_b94a15f3c021_Class39 ( obj_0847d2d6_7d18_4bc8_9083_8d062b02db8c o )  ) )):named c24))
(assert (! (exists ((o Int)) (and (and (and (and (and ( type_dfb7d253_c143_4273_8ca0_b94a15f3c021_Class31 ( obj_0847d2d6_7d18_4bc8_9083_8d062b02db8c o )  )  ( type_dfb7d253_c143_4273_8ca0_b94a15f3c021_Class45 ( obj_0847d2d6_7d18_4bc8_9083_8d062b02db8c o )  ) ) ( type_dfb7d253_c143_4273_8ca0_b94a15f3c021_Class12 ( obj_0847d2d6_7d18_4bc8_9083_8d062b02db8c o )  ) ) ( type_dfb7d253_c143_4273_8ca0_b94a15f3c021_Class33 ( obj_0847d2d6_7d18_4bc8_9083_8d062b02db8c o )  ) ) ( type_dfb7d253_c143_4273_8ca0_b94a15f3c021_Class22 ( obj_0847d2d6_7d18_4bc8_9083_8d062b02db8c o )  ) ) ( type_dfb7d253_c143_4273_8ca0_b94a15f3c021_Class39 ( obj_0847d2d6_7d18_4bc8_9083_8d062b02db8c o )  ) )):named c25))
(assert (! (exists ((o Int)) ( type_dfb7d253_c143_4273_8ca0_b94a15f3c021_Class32 ( obj_0847d2d6_7d18_4bc8_9083_8d062b02db8c o )  ) ):named c26))
(assert (! (exists ((o Int)) (and (and ( type_dfb7d253_c143_4273_8ca0_b94a15f3c021_Class33 ( obj_0847d2d6_7d18_4bc8_9083_8d062b02db8c o )  )  ( type_dfb7d253_c143_4273_8ca0_b94a15f3c021_Class22 ( obj_0847d2d6_7d18_4bc8_9083_8d062b02db8c o )  ) ) ( type_dfb7d253_c143_4273_8ca0_b94a15f3c021_Class39 ( obj_0847d2d6_7d18_4bc8_9083_8d062b02db8c o )  ) )):named c27))
(assert (! (exists ((o Int)) (and (and (and ( type_dfb7d253_c143_4273_8ca0_b94a15f3c021_Class34 ( obj_0847d2d6_7d18_4bc8_9083_8d062b02db8c o )  )  ( type_dfb7d253_c143_4273_8ca0_b94a15f3c021_Class25 ( obj_0847d2d6_7d18_4bc8_9083_8d062b02db8c o )  ) ) ( type_dfb7d253_c143_4273_8ca0_b94a15f3c021_Class24 ( obj_0847d2d6_7d18_4bc8_9083_8d062b02db8c o )  ) ) ( type_dfb7d253_c143_4273_8ca0_b94a15f3c021_Class39 ( obj_0847d2d6_7d18_4bc8_9083_8d062b02db8c o )  ) )):named c28))
(assert (! (exists ((o Int)) (and (and ( type_dfb7d253_c143_4273_8ca0_b94a15f3c021_Class35 ( obj_0847d2d6_7d18_4bc8_9083_8d062b02db8c o )  )  ( type_dfb7d253_c143_4273_8ca0_b94a15f3c021_Class39 ( obj_0847d2d6_7d18_4bc8_9083_8d062b02db8c o )  ) ) ( type_dfb7d253_c143_4273_8ca0_b94a15f3c021_Class30 ( obj_0847d2d6_7d18_4bc8_9083_8d062b02db8c o )  ) )):named c29))
(assert (! (exists ((o Int)) ( type_dfb7d253_c143_4273_8ca0_b94a15f3c021_Class36 ( obj_0847d2d6_7d18_4bc8_9083_8d062b02db8c o )  ) ):named c30))
(assert (! (exists ((o Int)) ( type_dfb7d253_c143_4273_8ca0_b94a15f3c021_Class37 ( obj_0847d2d6_7d18_4bc8_9083_8d062b02db8c o )  ) ):named c31))
(assert (! (exists ((o Int)) ( type_dfb7d253_c143_4273_8ca0_b94a15f3c021_Class38 ( obj_0847d2d6_7d18_4bc8_9083_8d062b02db8c o )  ) ):named c32))
(assert (! (exists ((o Int)) ( type_dfb7d253_c143_4273_8ca0_b94a15f3c021_Class39 ( obj_0847d2d6_7d18_4bc8_9083_8d062b02db8c o )  ) ):named c33))
(assert (! (exists ((o Int)) ( type_dfb7d253_c143_4273_8ca0_b94a15f3c021_Class4 ( obj_0847d2d6_7d18_4bc8_9083_8d062b02db8c o )  ) ):named c34))
(assert (! (exists ((o Int)) (and (and (and (and (and (and (and (and (and ( type_dfb7d253_c143_4273_8ca0_b94a15f3c021_Class40 ( obj_0847d2d6_7d18_4bc8_9083_8d062b02db8c o )  )  ( type_dfb7d253_c143_4273_8ca0_b94a15f3c021_Class45 ( obj_0847d2d6_7d18_4bc8_9083_8d062b02db8c o )  ) ) ( type_dfb7d253_c143_4273_8ca0_b94a15f3c021_Class12 ( obj_0847d2d6_7d18_4bc8_9083_8d062b02db8c o )  ) ) ( type_dfb7d253_c143_4273_8ca0_b94a15f3c021_Class55 ( obj_0847d2d6_7d18_4bc8_9083_8d062b02db8c o )  ) ) ( type_dfb7d253_c143_4273_8ca0_b94a15f3c021_Class33 ( obj_0847d2d6_7d18_4bc8_9083_8d062b02db8c o )  ) ) ( type_dfb7d253_c143_4273_8ca0_b94a15f3c021_Class22 ( obj_0847d2d6_7d18_4bc8_9083_8d062b02db8c o )  ) ) ( type_dfb7d253_c143_4273_8ca0_b94a15f3c021_Class29 ( obj_0847d2d6_7d18_4bc8_9083_8d062b02db8c o )  ) ) ( type_dfb7d253_c143_4273_8ca0_b94a15f3c021_Class39 ( obj_0847d2d6_7d18_4bc8_9083_8d062b02db8c o )  ) ) ( type_dfb7d253_c143_4273_8ca0_b94a15f3c021_Class50 ( obj_0847d2d6_7d18_4bc8_9083_8d062b02db8c o )  ) ) ( type_dfb7d253_c143_4273_8ca0_b94a15f3c021_Class41 ( obj_0847d2d6_7d18_4bc8_9083_8d062b02db8c o )  ) )):named c35))
(assert (! (exists ((o Int)) (and (and (and (and (and ( type_dfb7d253_c143_4273_8ca0_b94a15f3c021_Class41 ( obj_0847d2d6_7d18_4bc8_9083_8d062b02db8c o )  )  ( type_dfb7d253_c143_4273_8ca0_b94a15f3c021_Class45 ( obj_0847d2d6_7d18_4bc8_9083_8d062b02db8c o )  ) ) ( type_dfb7d253_c143_4273_8ca0_b94a15f3c021_Class12 ( obj_0847d2d6_7d18_4bc8_9083_8d062b02db8c o )  ) ) ( type_dfb7d253_c143_4273_8ca0_b94a15f3c021_Class33 ( obj_0847d2d6_7d18_4bc8_9083_8d062b02db8c o )  ) ) ( type_dfb7d253_c143_4273_8ca0_b94a15f3c021_Class22 ( obj_0847d2d6_7d18_4bc8_9083_8d062b02db8c o )  ) ) ( type_dfb7d253_c143_4273_8ca0_b94a15f3c021_Class39 ( obj_0847d2d6_7d18_4bc8_9083_8d062b02db8c o )  ) )):named c36))
(assert (! (exists ((o Int)) (and ( type_dfb7d253_c143_4273_8ca0_b94a15f3c021_Class42 ( obj_0847d2d6_7d18_4bc8_9083_8d062b02db8c o )  )  ( type_dfb7d253_c143_4273_8ca0_b94a15f3c021_Class39 ( obj_0847d2d6_7d18_4bc8_9083_8d062b02db8c o )  ) )):named c37))
(assert (! (exists ((o Int)) ( type_dfb7d253_c143_4273_8ca0_b94a15f3c021_Class43 ( obj_0847d2d6_7d18_4bc8_9083_8d062b02db8c o )  ) ):named c38))
(assert (! (exists ((o Int)) (and (and (and (and (and (and (and ( type_dfb7d253_c143_4273_8ca0_b94a15f3c021_Class44 ( obj_0847d2d6_7d18_4bc8_9083_8d062b02db8c o )  )  ( type_dfb7d253_c143_4273_8ca0_b94a15f3c021_Class45 ( obj_0847d2d6_7d18_4bc8_9083_8d062b02db8c o )  ) ) ( type_dfb7d253_c143_4273_8ca0_b94a15f3c021_Class12 ( obj_0847d2d6_7d18_4bc8_9083_8d062b02db8c o )  ) ) ( type_dfb7d253_c143_4273_8ca0_b94a15f3c021_Class33 ( obj_0847d2d6_7d18_4bc8_9083_8d062b02db8c o )  ) ) ( type_dfb7d253_c143_4273_8ca0_b94a15f3c021_Class22 ( obj_0847d2d6_7d18_4bc8_9083_8d062b02db8c o )  ) ) ( type_dfb7d253_c143_4273_8ca0_b94a15f3c021_Class29 ( obj_0847d2d6_7d18_4bc8_9083_8d062b02db8c o )  ) ) ( type_dfb7d253_c143_4273_8ca0_b94a15f3c021_Class39 ( obj_0847d2d6_7d18_4bc8_9083_8d062b02db8c o )  ) ) ( type_dfb7d253_c143_4273_8ca0_b94a15f3c021_Class41 ( obj_0847d2d6_7d18_4bc8_9083_8d062b02db8c o )  ) )):named c39))
(assert (! (exists ((o Int)) (and (and (and (and ( type_dfb7d253_c143_4273_8ca0_b94a15f3c021_Class45 ( obj_0847d2d6_7d18_4bc8_9083_8d062b02db8c o )  )  ( type_dfb7d253_c143_4273_8ca0_b94a15f3c021_Class12 ( obj_0847d2d6_7d18_4bc8_9083_8d062b02db8c o )  ) ) ( type_dfb7d253_c143_4273_8ca0_b94a15f3c021_Class33 ( obj_0847d2d6_7d18_4bc8_9083_8d062b02db8c o )  ) ) ( type_dfb7d253_c143_4273_8ca0_b94a15f3c021_Class22 ( obj_0847d2d6_7d18_4bc8_9083_8d062b02db8c o )  ) ) ( type_dfb7d253_c143_4273_8ca0_b94a15f3c021_Class39 ( obj_0847d2d6_7d18_4bc8_9083_8d062b02db8c o )  ) )):named c40))
(assert (! (exists ((o Int)) (and (and ( type_dfb7d253_c143_4273_8ca0_b94a15f3c021_Class46 ( obj_0847d2d6_7d18_4bc8_9083_8d062b02db8c o )  )  ( type_dfb7d253_c143_4273_8ca0_b94a15f3c021_Class39 ( obj_0847d2d6_7d18_4bc8_9083_8d062b02db8c o )  ) ) ( type_dfb7d253_c143_4273_8ca0_b94a15f3c021_Class5 ( obj_0847d2d6_7d18_4bc8_9083_8d062b02db8c o )  ) )):named c41))
(assert (! (exists ((o Int)) ( type_dfb7d253_c143_4273_8ca0_b94a15f3c021_Class47 ( obj_0847d2d6_7d18_4bc8_9083_8d062b02db8c o )  ) ):named c42))
(assert (! (exists ((o Int)) (and (and (and (and (and (and (and (and (and ( type_dfb7d253_c143_4273_8ca0_b94a15f3c021_Class48 ( obj_0847d2d6_7d18_4bc8_9083_8d062b02db8c o )  )  ( type_dfb7d253_c143_4273_8ca0_b94a15f3c021_Class45 ( obj_0847d2d6_7d18_4bc8_9083_8d062b02db8c o )  ) ) ( type_dfb7d253_c143_4273_8ca0_b94a15f3c021_Class12 ( obj_0847d2d6_7d18_4bc8_9083_8d062b02db8c o )  ) ) ( type_dfb7d253_c143_4273_8ca0_b94a15f3c021_Class55 ( obj_0847d2d6_7d18_4bc8_9083_8d062b02db8c o )  ) ) ( type_dfb7d253_c143_4273_8ca0_b94a15f3c021_Class33 ( obj_0847d2d6_7d18_4bc8_9083_8d062b02db8c o )  ) ) ( type_dfb7d253_c143_4273_8ca0_b94a15f3c021_Class22 ( obj_0847d2d6_7d18_4bc8_9083_8d062b02db8c o )  ) ) ( type_dfb7d253_c143_4273_8ca0_b94a15f3c021_Class29 ( obj_0847d2d6_7d18_4bc8_9083_8d062b02db8c o )  ) ) ( type_dfb7d253_c143_4273_8ca0_b94a15f3c021_Class39 ( obj_0847d2d6_7d18_4bc8_9083_8d062b02db8c o )  ) ) ( type_dfb7d253_c143_4273_8ca0_b94a15f3c021_Class50 ( obj_0847d2d6_7d18_4bc8_9083_8d062b02db8c o )  ) ) ( type_dfb7d253_c143_4273_8ca0_b94a15f3c021_Class41 ( obj_0847d2d6_7d18_4bc8_9083_8d062b02db8c o )  ) )):named c43))
(assert (! (exists ((o Int)) (and (and (and (and (and (and (and (and (and ( type_dfb7d253_c143_4273_8ca0_b94a15f3c021_Class49 ( obj_0847d2d6_7d18_4bc8_9083_8d062b02db8c o )  )  ( type_dfb7d253_c143_4273_8ca0_b94a15f3c021_Class45 ( obj_0847d2d6_7d18_4bc8_9083_8d062b02db8c o )  ) ) ( type_dfb7d253_c143_4273_8ca0_b94a15f3c021_Class12 ( obj_0847d2d6_7d18_4bc8_9083_8d062b02db8c o )  ) ) ( type_dfb7d253_c143_4273_8ca0_b94a15f3c021_Class55 ( obj_0847d2d6_7d18_4bc8_9083_8d062b02db8c o )  ) ) ( type_dfb7d253_c143_4273_8ca0_b94a15f3c021_Class33 ( obj_0847d2d6_7d18_4bc8_9083_8d062b02db8c o )  ) ) ( type_dfb7d253_c143_4273_8ca0_b94a15f3c021_Class22 ( obj_0847d2d6_7d18_4bc8_9083_8d062b02db8c o )  ) ) ( type_dfb7d253_c143_4273_8ca0_b94a15f3c021_Class29 ( obj_0847d2d6_7d18_4bc8_9083_8d062b02db8c o )  ) ) ( type_dfb7d253_c143_4273_8ca0_b94a15f3c021_Class39 ( obj_0847d2d6_7d18_4bc8_9083_8d062b02db8c o )  ) ) ( type_dfb7d253_c143_4273_8ca0_b94a15f3c021_Class50 ( obj_0847d2d6_7d18_4bc8_9083_8d062b02db8c o )  ) ) ( type_dfb7d253_c143_4273_8ca0_b94a15f3c021_Class41 ( obj_0847d2d6_7d18_4bc8_9083_8d062b02db8c o )  ) )):named c44))
(assert (! (exists ((o Int)) (and ( type_dfb7d253_c143_4273_8ca0_b94a15f3c021_Class5 ( obj_0847d2d6_7d18_4bc8_9083_8d062b02db8c o )  )  ( type_dfb7d253_c143_4273_8ca0_b94a15f3c021_Class39 ( obj_0847d2d6_7d18_4bc8_9083_8d062b02db8c o )  ) )):named c45))
(assert (! (exists ((o Int)) (and (and (and (and (and (and (and (and ( type_dfb7d253_c143_4273_8ca0_b94a15f3c021_Class50 ( obj_0847d2d6_7d18_4bc8_9083_8d062b02db8c o )  )  ( type_dfb7d253_c143_4273_8ca0_b94a15f3c021_Class45 ( obj_0847d2d6_7d18_4bc8_9083_8d062b02db8c o )  ) ) ( type_dfb7d253_c143_4273_8ca0_b94a15f3c021_Class12 ( obj_0847d2d6_7d18_4bc8_9083_8d062b02db8c o )  ) ) ( type_dfb7d253_c143_4273_8ca0_b94a15f3c021_Class55 ( obj_0847d2d6_7d18_4bc8_9083_8d062b02db8c o )  ) ) ( type_dfb7d253_c143_4273_8ca0_b94a15f3c021_Class33 ( obj_0847d2d6_7d18_4bc8_9083_8d062b02db8c o )  ) ) ( type_dfb7d253_c143_4273_8ca0_b94a15f3c021_Class22 ( obj_0847d2d6_7d18_4bc8_9083_8d062b02db8c o )  ) ) ( type_dfb7d253_c143_4273_8ca0_b94a15f3c021_Class29 ( obj_0847d2d6_7d18_4bc8_9083_8d062b02db8c o )  ) ) ( type_dfb7d253_c143_4273_8ca0_b94a15f3c021_Class39 ( obj_0847d2d6_7d18_4bc8_9083_8d062b02db8c o )  ) ) ( type_dfb7d253_c143_4273_8ca0_b94a15f3c021_Class41 ( obj_0847d2d6_7d18_4bc8_9083_8d062b02db8c o )  ) )):named c46))
(assert (! (exists ((o Int)) (and (and (and (and (and (and ( type_dfb7d253_c143_4273_8ca0_b94a15f3c021_Class51 ( obj_0847d2d6_7d18_4bc8_9083_8d062b02db8c o )  )  ( type_dfb7d253_c143_4273_8ca0_b94a15f3c021_Class45 ( obj_0847d2d6_7d18_4bc8_9083_8d062b02db8c o )  ) ) ( type_dfb7d253_c143_4273_8ca0_b94a15f3c021_Class12 ( obj_0847d2d6_7d18_4bc8_9083_8d062b02db8c o )  ) ) ( type_dfb7d253_c143_4273_8ca0_b94a15f3c021_Class33 ( obj_0847d2d6_7d18_4bc8_9083_8d062b02db8c o )  ) ) ( type_dfb7d253_c143_4273_8ca0_b94a15f3c021_Class22 ( obj_0847d2d6_7d18_4bc8_9083_8d062b02db8c o )  ) ) ( type_dfb7d253_c143_4273_8ca0_b94a15f3c021_Class16 ( obj_0847d2d6_7d18_4bc8_9083_8d062b02db8c o )  ) ) ( type_dfb7d253_c143_4273_8ca0_b94a15f3c021_Class39 ( obj_0847d2d6_7d18_4bc8_9083_8d062b02db8c o )  ) )):named c47))
(assert (! (exists ((o Int)) (and (and (and (and (and ( type_dfb7d253_c143_4273_8ca0_b94a15f3c021_Class52 ( obj_0847d2d6_7d18_4bc8_9083_8d062b02db8c o )  )  ( type_dfb7d253_c143_4273_8ca0_b94a15f3c021_Class45 ( obj_0847d2d6_7d18_4bc8_9083_8d062b02db8c o )  ) ) ( type_dfb7d253_c143_4273_8ca0_b94a15f3c021_Class12 ( obj_0847d2d6_7d18_4bc8_9083_8d062b02db8c o )  ) ) ( type_dfb7d253_c143_4273_8ca0_b94a15f3c021_Class33 ( obj_0847d2d6_7d18_4bc8_9083_8d062b02db8c o )  ) ) ( type_dfb7d253_c143_4273_8ca0_b94a15f3c021_Class22 ( obj_0847d2d6_7d18_4bc8_9083_8d062b02db8c o )  ) ) ( type_dfb7d253_c143_4273_8ca0_b94a15f3c021_Class39 ( obj_0847d2d6_7d18_4bc8_9083_8d062b02db8c o )  ) )):named c48))
(assert (! (exists ((o Int)) ( type_dfb7d253_c143_4273_8ca0_b94a15f3c021_Class53 ( obj_0847d2d6_7d18_4bc8_9083_8d062b02db8c o )  ) ):named c49))
(assert (! (exists ((o Int)) ( type_dfb7d253_c143_4273_8ca0_b94a15f3c021_Class54 ( obj_0847d2d6_7d18_4bc8_9083_8d062b02db8c o )  ) ):named c50))
(assert (! (exists ((o Int)) (and (and (and (and (and (and (and ( type_dfb7d253_c143_4273_8ca0_b94a15f3c021_Class55 ( obj_0847d2d6_7d18_4bc8_9083_8d062b02db8c o )  )  ( type_dfb7d253_c143_4273_8ca0_b94a15f3c021_Class45 ( obj_0847d2d6_7d18_4bc8_9083_8d062b02db8c o )  ) ) ( type_dfb7d253_c143_4273_8ca0_b94a15f3c021_Class12 ( obj_0847d2d6_7d18_4bc8_9083_8d062b02db8c o )  ) ) ( type_dfb7d253_c143_4273_8ca0_b94a15f3c021_Class33 ( obj_0847d2d6_7d18_4bc8_9083_8d062b02db8c o )  ) ) ( type_dfb7d253_c143_4273_8ca0_b94a15f3c021_Class22 ( obj_0847d2d6_7d18_4bc8_9083_8d062b02db8c o )  ) ) ( type_dfb7d253_c143_4273_8ca0_b94a15f3c021_Class29 ( obj_0847d2d6_7d18_4bc8_9083_8d062b02db8c o )  ) ) ( type_dfb7d253_c143_4273_8ca0_b94a15f3c021_Class39 ( obj_0847d2d6_7d18_4bc8_9083_8d062b02db8c o )  ) ) ( type_dfb7d253_c143_4273_8ca0_b94a15f3c021_Class41 ( obj_0847d2d6_7d18_4bc8_9083_8d062b02db8c o )  ) )):named c51))
(assert (! (exists ((o Int)) ( type_dfb7d253_c143_4273_8ca0_b94a15f3c021_Class6 ( obj_0847d2d6_7d18_4bc8_9083_8d062b02db8c o )  ) ):named c52))
(assert (! (exists ((o Int)) (and (and (and (and (and (and (and (and (and ( type_dfb7d253_c143_4273_8ca0_b94a15f3c021_Class7 ( obj_0847d2d6_7d18_4bc8_9083_8d062b02db8c o )  )  ( type_dfb7d253_c143_4273_8ca0_b94a15f3c021_Class45 ( obj_0847d2d6_7d18_4bc8_9083_8d062b02db8c o )  ) ) ( type_dfb7d253_c143_4273_8ca0_b94a15f3c021_Class12 ( obj_0847d2d6_7d18_4bc8_9083_8d062b02db8c o )  ) ) ( type_dfb7d253_c143_4273_8ca0_b94a15f3c021_Class55 ( obj_0847d2d6_7d18_4bc8_9083_8d062b02db8c o )  ) ) ( type_dfb7d253_c143_4273_8ca0_b94a15f3c021_Class33 ( obj_0847d2d6_7d18_4bc8_9083_8d062b02db8c o )  ) ) ( type_dfb7d253_c143_4273_8ca0_b94a15f3c021_Class22 ( obj_0847d2d6_7d18_4bc8_9083_8d062b02db8c o )  ) ) ( type_dfb7d253_c143_4273_8ca0_b94a15f3c021_Class29 ( obj_0847d2d6_7d18_4bc8_9083_8d062b02db8c o )  ) ) ( type_dfb7d253_c143_4273_8ca0_b94a15f3c021_Class39 ( obj_0847d2d6_7d18_4bc8_9083_8d062b02db8c o )  ) ) ( type_dfb7d253_c143_4273_8ca0_b94a15f3c021_Class50 ( obj_0847d2d6_7d18_4bc8_9083_8d062b02db8c o )  ) ) ( type_dfb7d253_c143_4273_8ca0_b94a15f3c021_Class41 ( obj_0847d2d6_7d18_4bc8_9083_8d062b02db8c o )  ) )):named c53))
(assert (! (exists ((o Int)) (and ( type_dfb7d253_c143_4273_8ca0_b94a15f3c021_Class8 ( obj_0847d2d6_7d18_4bc8_9083_8d062b02db8c o )  )  ( type_dfb7d253_c143_4273_8ca0_b94a15f3c021_Class39 ( obj_0847d2d6_7d18_4bc8_9083_8d062b02db8c o )  ) )):named c54))
(assert (! (exists ((o Int)) ( type_dfb7d253_c143_4273_8ca0_b94a15f3c021_Class9 ( obj_0847d2d6_7d18_4bc8_9083_8d062b02db8c o )  ) ):named c55))

 ;end of formula 